# Objective value = 7
rank[0,0] 0
rank[0,1] 1
rank[0,2] 0
rank[0,3] 0
rank[0,4] 0
rank[0,5] 0
rank[1,0] 0
rank[1,1] 0
rank[1,2] 1
rank[1,3] 0
rank[1,4] 0
rank[1,5] 0
rank[2,0] 1
rank[2,1] 0
rank[2,2] 0
rank[2,3] 0
rank[2,4] 0
rank[2,5] 0
rank[3,0] 0
rank[3,1] 0
rank[3,2] 0
rank[3,3] 0
rank[3,4] 1
rank[3,5] 0
rank[4,0] 0
rank[4,1] 0
rank[4,2] 0
rank[4,3] 1
rank[4,4] 0
rank[4,5] 0
rank[5,0] 0
rank[5,1] 0
rank[5,2] 0
rank[5,3] 0
rank[5,4] 0
rank[5,5] 1
empty[0,0] 0
empty[0,1] 0
empty[0,2] 0
empty[0,3] 0
empty[0,4] 0
empty[1,0] 1
empty[1,1] 1
empty[1,2] 1
empty[1,3] 1
empty[1,4] 3
empty[2,0] 2
empty[2,1] 0
empty[2,2] 0
empty[2,3] 0
empty[2,4] 0
wait[0,0] 0
wait[0,1] 0
wait[0,2] 0
wait[0,3] 0
wait[0,4] 0
wait[0,5] 0
wait[1,0] 0
wait[1,1] 0
wait[1,2] 3
wait[1,3] 2
wait[1,4] 2
wait[1,5] 0
